NAME : a280
COMMENT : drilling problem (Ludwig)
TYPE : TSP
DIMENSION: 7
EDGE_WEIGHT_TYPE : EUC_2D
NODE_COORD_SECTION
0 15.83 -11.32
1 -13,84 -0,96
2 -4,9 -11,42
3 -19,06 2,15
4 -9,91 9,55
5 -3,15 -1,81
6 -13,7 18,47
7 5,17 13,99
8 -10,95 15,91
9 1,83 1,38
EOF